
Gurobi 9.5.0 (mac64[x86]) logging started Mon 16 Jan 15:48:02 2023

Set parameter LogFile to value "/Users/nikitabelyak/Dropbox (Aalto)/TSEP/Nordic_case_study/2022 data/optimisation_results/16_Jan_2023_15_48_02.log"
Set parameter Threads to value 6
